ssat_solver_solve2
#level: 2
Abc_NtkNodeNum(s->pNtk): 789  , BDD limit: 10240
level 1: 20 element
Exist
existence_eliminate_scope
Abc_NtkIsBddLogic(pNtk): 0
Abc_NtkIsStrash(pNtk): 1
existence_eliminate_scope_aig
exist by BDD failed
Abc_NtkNodeNum(s->pNtk): 30209675  , BDD limit: 36251610
Build BDD success
level 0: 20 element
Random
c ssat solving in ABC
#var: 40
s SATISFIABLE
  > Upper bound = 3.108406e-02
  > Lower bound = 3.108406e-02
FINISHED CPU 873.56 MEM 0 MAXMEM 5811184 STALE 0 MAXMEM_RSS 5452880
<time name="ALL">873660</time>
real 873.79
user 1011.11
sys 390.00
